bacp/03/params/inst-427-1-1058338582.param
language Essence 1.3
$ generated by bacp-gen.pl with seed 1058338582
$ edge probability 0.094
$ course loads in range 4..8
letting n_courses be 142
letting n_periods be 23
letting load_per_period_lb be 5
letting load_per_period_ub be 36
letting courses_per_period_lb be 3
letting courses_per_period_ub be 9
letting course_load be function(
1 --> 6,
2 --> 6,
3 --> 5,
4 --> 4,
5 --> 5,
6 --> 8,
7 --> 4,
8 --> 6,
9 --> 4,
10 --> 5,
11 --> 5,
12 --> 4,
13 --> 8,
14 --> 4,
15 --> 4,
16 --> 6,
17 --> 8,
18 --> 6,
19 --> 8,
20 --> 5,
21 --> 5,
22 --> 5,
23 --> 5,
24 --> 7,
25 --> 7,
26 --> 5,
27 --> 7,
28 --> 6,
29 --> 4,
30 --> 8,
31 --> 6,
32 --> 6,
33 --> 4,
34 --> 6,
35 --> 7,
36 --> 5,
37 --> 5,
38 --> 4,
39 --> 6,
40 --> 8,
41 --> 7,
42 --> 7,
43 --> 5,
44 --> 4,
45 --> 6,
46 --> 5,
47 --> 4,
48 --> 6,
49 --> 4,
50 --> 5,
51 --> 4,
52 --> 8,
53 --> 8,
54 --> 5,
55 --> 4,
56 --> 5,
57 --> 5,
58 --> 6,
59 --> 4,
60 --> 7,
61 --> 7,
62 --> 6,
63 --> 5,
64 --> 7,
65 --> 7,
66 --> 4,
67 --> 7,
68 --> 6,
69 --> 8,
70 --> 7,
71 --> 6,
72 --> 5,
73 --> 6,
74 --> 4,
75 --> 7,
76 --> 8,
77 --> 7,
78 --> 4,
79 --> 8,
80 --> 5,
81 --> 8,
82 --> 7,
83 --> 8,
84 --> 4,
85 --> 7,
86 --> 6,
87 --> 7,
88 --> 6,
89 --> 7,
90 --> 6,
91 --> 6,
92 --> 8,
93 --> 5,
94 --> 6,
95 --> 5,
96 --> 5,
97 --> 6,
98 --> 7,
99 --> 5,
100 --> 5,
101 --> 5,
102 --> 5,
103 --> 6,
104 --> 6,
105 --> 4,
106 --> 6,
107 --> 7,
108 --> 4,
109 --> 4,
110 --> 4,
111 --> 4,
112 --> 6,
113 --> 8,
114 --> 6,
115 --> 6,
116 --> 6,
117 --> 7,
118 --> 4,
119 --> 4,
120 --> 4,
121 --> 5,
122 --> 5,
123 --> 8,
124 --> 4,
125 --> 7,
126 --> 7,
127 --> 6,
128 --> 4,
129 --> 4,
130 --> 7,
131 --> 8,
132 --> 4,
133 --> 5,
134 --> 4,
135 --> 5,
136 --> 5,
137 --> 5,
138 --> 7,
139 --> 4,
140 --> 6,
141 --> 5,
142 --> 4
)
letting prerequisite be relation (
(23,44),
(10,45),
(19,46),
(16,47),
(21,48),
(35,49),
(27,50),
(32,51),
(38,52),
(22,53),
(17,54),
(16,55),
(38,56),
(12,57),
(26,58),
(11,59),
(33,60),
(26,61),
(14,62),
(29,63),
(6,64),
(13,65),
(18,66),
(31,67),
(11,68),
(39,69),
(15,70),
(3,71),
(31,72),
(32,73),
(39,74),
(32,75),
(32,76),
(19,77),
(7,78),
(16,79),
(32,80),
(31,81),
(10,82),
(7,83),
(9,84),
(27,85),
(25,86),
(28,87),
(28,88),
(28,89),
(15,90),
(19,91),
(26,92),
(24,93),
(24,94),
(15,95),
(32,96),
(28,97),
(15,98),
(21,99),
(17,100),
(35,101),
(5,102),
(28,103),
(23,104),
(14,105),
(78,106),
(56,107),
(83,108),
(63,109),
(105,110),
(53,111),
(83,112),
(83,113),
(96,114),
(58,115),
(98,116),
(101,117),
(59,118),
(68,119),
(92,120),
(87,121),
(65,122),
(50,123),
(53,124),
(70,125),
(67,126),
(100,127),
(71,128),
(84,129),
(47,130),
(49,131),
(101,132),
(105,133),
(71,134),
(59,135),
(45,136),
(65,137),
(67,138),
(44,139),
(100,140),
(53,141),
(66,142),
(8,53),
(63,138),
(82,130),
(40,66),
(71,118),
(79,120),
(87,125),
(35,69),
(82,121),
(16,48),
(68,124),
(70,111),
(27,103),
(53,134),
(66,140),
(29,88),
(75,112),
(52,119),
(11,62),
(28,58),
(101,119),
(52,128),
(26,105),
(82,136),
(48,113),
(19,101),
(98,142),
(25,94),
(92,109),
(98,127),
(74,111),
(11,57),
(62,110),
(2,56),
(91,139),
(97,121),
(70,131),
(13,61),
(47,142),
(83,134),
(96,136),
(8,52),
(31,97),
(13,87),
(72,139),
(86,140),
(52,115),
(9,83),
(67,109),
(71,129),
(30,101),
(57,107),
(22,47),
(29,52),
(52,108),
(7,102),
(74,126),
(20,101),
(102,123),
(6,86),
(24,80),
(26,94),
(69,130),
(17,83),
(2,101),
(75,135),
(27,61),
(2,84),
(12,88),
(35,103),
(103,131),
(32,79),
(64,122),
(3,100),
(94,134),
(4,102),
(94,139),
(25,44),
(63,130),
(42,93),
(58,122),
(50,106),
(80,136),
(43,48),
(38,66),
(15,50),
(14,60),
(59,108),
(74,130),
(78,118),
(21,89),
(9,66),
(56,116),
(42,69),
(46,128),
(32,87),
(50,137),
(25,46),
(61,130),
(68,138),
(57,120),
(88,139),
(10,50),
(89,136),
(37,46),
(38,99),
(87,142),
(84,141),
(40,78),
(23,80),
(66,132),
(24,92),
(80,123),
(45,126),
(6,47),
(13,69),
(104,118),
(19,78),
(44,130),
(85,130),
(38,94),
(23,57),
(28,59),
(48,135),
(2,98),
(7,60),
(91,111),
(85,127),
(37,74),
(36,48),
(80,108),
(1,81),
(48,115),
(53,128),
(85,108),
(78,130),
(25,84),
(73,142),
(25,48),
(31,63),
(37,73),
(23,66),
(60,107),
(83,114),
(23,78),
(13,90),
(8,51),
(23,92),
(78,114),
(40,50),
(89,139),
(8,105),
(2,55),
(21,63),
(85,129),
(51,139),
(36,59),
(102,126),
(12,58),
(76,123),
(75,109),
(82,126),
(86,137),
(53,138),
(49,106),
(56,113),
(56,132),
(92,108),
(83,129),
(18,46),
(7,46),
(60,124),
(89,106),
(25,53),
(47,115),
(22,51),
(75,142),
(80,125),
(42,60),
(61,139),
(86,128),
(18,99),
(6,54),
(93,132),
(96,112),
(14,90),
(87,126),
(98,124),
(10,68),
(89,121),
(100,117),
(34,46),
(24,60),
(93,109),
(17,72),
(75,126),
(35,60),
(16,75),
(67,114),
(10,101),
(5,99),
(19,96),
(38,62),
(41,68),
(70,136),
(4,63),
(54,123),
(27,68),
(15,57),
(27,87),
(12,97),
(68,134),
(46,118),
(2,67),
(64,115),
(41,78),
(57,111),
(47,110),
(55,106),
(84,107),
(16,91),
(84,113),
(17,77),
(50,118),
(88,112),
(75,114),
(94,122),
(27,104),
(41,57),
(20,95),
(43,95),
(100,120),
(12,56),
(11,53),
(39,61),
(62,128),
(69,116),
(6,73),
(34,72),
(88,130),
(63,125),
(7,55),
(34,75),
(23,64),
(67,132),
(9,105),
(14,98),
(13,105),
(49,140),
(4,80),
(11,55),
(7,97),
(90,141),
(7,45),
(59,119),
(4,83),
(24,89),
(39,94),
(66,113),
(37,93),
(5,67),
(21,100),
(18,73),
(27,63),
(12,50),
(50,107),
(6,81),
(101,113),
(47,135),
(3,87),
(15,46),
(52,138),
(43,98),
(55,125),
(55,137),
(26,57),
(75,139),
(99,142),
(17,90),
(19,49),
(87,123),
(28,80),
(69,141),
(40,60),
(33,70),
(75,129),
(38,92),
(84,124),
(77,135),
(16,100),
(40,48),
(40,62),
(8,96),
(18,74),
(30,77),
(76,132),
(59,124),
(90,133),
(71,133),
(62,137),
(49,138),
(42,77),
(38,80),
(75,110),
(51,136),
(15,105),
(32,78),
(15,72),
(32,65),
(27,92),
(7,98),
(20,44),
(82,116),
(9,71),
(50,127),
(16,44),
(39,44),
(12,59),
(58,118),
(43,97),
(31,71),
(3,83),
(3,57),
(15,101),
(63,117),
(91,129),
(96,137),
(32,58),
(12,81),
(37,104),
(12,78),
(56,122),
(64,129),
(25,102),
(74,142),
(60,121),
(104,122),
(3,103),
(24,59),
(34,102),
(12,67),
(53,142),
(1,91),
(19,85),
(99,111),
(46,112),
(40,94),
(72,135),
(21,65),
(34,73),
(96,123),
(10,57),
(13,97),
(76,135),
(92,137),
(91,119),
(18,95),
(63,127),
(105,139),
(78,113),
(37,63),
(65,135),
(95,136),
(61,137),
(28,76),
(96,110),
(83,120)
)

