bacp/param_dec/inst-427-1-1058338582.eprime-param
language ESSENCE' 1.0

letting n_courses be 142
letting n_periods be 23
letting prerequisite_RelationAsSet_Explicit_1 be
        [1, 1, 2, 2, 2, 2, 2, 2, 3, 3, 3, 3, 3, 3, 4, 4, 4, 4, 5, 5, 5, 6, 6, 6, 6, 6, 6, 7, 7, 7, 7, 7, 7, 7, 7, 7, 8,
         8, 8, 8, 8, 9, 9, 9, 9, 9, 10, 10, 10, 10, 10, 10, 11, 11, 11, 11, 11, 11, 12, 12, 12, 12, 12, 12, 12, 12, 12,
         12, 13, 13, 13, 13, 13, 13, 13, 14, 14, 14, 14, 14, 15, 15, 15, 15, 15, 15, 15, 15, 15, 15, 16, 16, 16, 16, 16,
         16, 16, 16, 17, 17, 17, 17, 17, 17, 18, 18, 18, 18, 18, 18, 19, 19, 19, 19, 19, 19, 19, 19, 20, 20, 20, 21, 21,
         21, 21, 21, 21, 22, 22, 22, 23, 23, 23, 23, 23, 23, 23, 23, 24, 24, 24, 24, 24, 24, 24, 25, 25, 25, 25, 25, 25,
         25, 25, 26, 26, 26, 26, 26, 26, 27, 27, 27, 27, 27, 27, 27, 27, 27, 28, 28, 28, 28, 28, 28, 28, 28, 28, 29, 29,
         29, 30, 30, 31, 31, 31, 31, 31, 31, 32, 32, 32, 32, 32, 32, 32, 32, 32, 32, 32, 33, 33, 34, 34, 34, 34, 34, 35,
         35, 35, 35, 35, 36, 36, 37, 37, 37, 37, 37, 37, 38, 38, 38, 38, 38, 38, 38, 38, 39, 39, 39, 39, 39, 40, 40, 40,
         40, 40, 40, 40, 41, 41, 41, 42, 42, 42, 42, 43, 43, 43, 43, 44, 44, 45, 45, 46, 46, 46, 47, 47, 47, 47, 47, 48,
         48, 48, 49, 49, 49, 49, 50, 50, 50, 50, 50, 50, 51, 51, 52, 52, 52, 52, 52, 53, 53, 53, 53, 53, 53, 53, 54, 55,
         55, 55, 56, 56, 56, 56, 56, 57, 57, 57, 58, 58, 58, 59, 59, 59, 59, 59, 60, 60, 60, 61, 61, 61, 62, 62, 62, 63,
         63, 63, 63, 63, 63, 64, 64, 64, 65, 65, 65, 66, 66, 66, 66, 67, 67, 67, 67, 67, 68, 68, 68, 68, 69, 69, 69, 70,
         70, 70, 70, 71, 71, 71, 71, 71, 72, 72, 73, 74, 74, 74, 74, 75, 75, 75, 75, 75, 75, 75, 75, 75, 76, 76, 76, 77,
         78, 78, 78, 78, 78, 79, 80, 80, 80, 80, 82, 82, 82, 82, 82, 83, 83, 83, 83, 83, 83, 83, 84, 84, 84, 84, 84, 85,
         85, 85, 85, 86, 86, 86, 87, 87, 87, 87, 87, 88, 88, 88, 89, 89, 89, 89, 90, 90, 91, 91, 91, 91, 92, 92, 92, 92,
         93, 93, 94, 94, 94, 95, 96, 96, 96, 96, 96, 96, 97, 98, 98, 98, 98, 99, 99, 100, 100, 100, 100, 101, 101, 101,
         101, 102, 102, 103, 104, 104, 105, 105, 105;
             int(1..466)]
letting prerequisite_RelationAsSet_Explicit_2 be
        [81, 91, 55, 56, 67, 84, 98, 101, 57, 71, 83, 87, 100, 103, 63, 80, 83, 102, 67, 99, 102, 47, 54, 64, 73, 81,
         86, 45, 46, 55, 60, 78, 83, 97, 98, 102, 51, 52, 53, 96, 105, 66, 71, 83, 84, 105, 45, 50, 57, 68, 82, 101, 53,
         55, 57, 59, 62, 68, 50, 56, 57, 58, 59, 67, 78, 81, 88, 97, 61, 65, 69, 87, 90, 97, 105, 60, 62, 90, 98, 105,
         46, 50, 57, 70, 72, 90, 95, 98, 101, 105, 44, 47, 48, 55, 75, 79, 91, 100, 54, 72, 77, 83, 90, 100, 46, 66, 73,
         74, 95, 99, 46, 49, 77, 78, 85, 91, 96, 101, 44, 95, 101, 48, 63, 65, 89, 99, 100, 47, 51, 53, 44, 57, 64, 66,
         78, 80, 92, 104, 59, 60, 80, 89, 92, 93, 94, 44, 46, 48, 53, 84, 86, 94, 102, 57, 58, 61, 92, 94, 105, 50, 61,
         63, 68, 85, 87, 92, 103, 104, 58, 59, 76, 80, 87, 88, 89, 97, 103, 52, 63, 88, 77, 101, 63, 67, 71, 72, 81, 97,
         51, 58, 65, 73, 75, 76, 78, 79, 80, 87, 96, 60, 70, 46, 72, 73, 75, 102, 49, 60, 69, 101, 103, 48, 59, 46, 63,
         73, 74, 93, 104, 52, 56, 62, 66, 80, 92, 94, 99, 44, 61, 69, 74, 94, 48, 50, 60, 62, 66, 78, 94, 57, 68, 78,
         60, 69, 77, 93, 48, 95, 97, 98, 130, 139, 126, 136, 112, 118, 128, 110, 115, 130, 135, 142, 113, 115, 135, 106,
         131, 138, 140, 106, 107, 118, 123, 127, 137, 136, 139, 108, 115, 119, 128, 138, 111, 124, 128, 134, 138, 141,
         142, 123, 106, 125, 137, 107, 113, 116, 122, 132, 107, 111, 120, 115, 118, 122, 108, 118, 119, 124, 135, 107,
         121, 124, 130, 137, 139, 110, 128, 137, 109, 117, 125, 127, 130, 138, 115, 122, 129, 122, 135, 137, 113, 132,
         140, 142, 109, 114, 126, 132, 138, 119, 124, 134, 138, 116, 130, 141, 111, 125, 131, 136, 118, 128, 129, 133,
         134, 135, 139, 142, 111, 126, 130, 142, 109, 110, 112, 114, 126, 129, 135, 139, 142, 123, 132, 135, 135, 106,
         113, 114, 118, 130, 120, 108, 123, 125, 136, 116, 121, 126, 130, 136, 108, 112, 113, 114, 120, 129, 134, 107,
         113, 124, 129, 141, 108, 127, 129, 130, 128, 137, 140, 121, 123, 125, 126, 142, 112, 130, 139, 106, 121, 136,
         139, 133, 141, 111, 119, 129, 139, 108, 109, 120, 137, 109, 132, 122, 134, 139, 136, 110, 112, 114, 123, 136,
         137, 121, 116, 124, 127, 142, 111, 142, 117, 120, 127, 140, 113, 117, 119, 132, 123, 126, 131, 118, 122, 110,
         133, 139;
             int(1..466)]
letting course_load_Function1D be
        [6, 6, 5, 4, 5, 8, 4, 6, 4, 5, 5, 4, 8, 4, 4, 6, 8, 6, 8, 5, 5, 5, 5, 7, 7, 5, 7, 6, 4, 8, 6, 6, 4, 6, 7, 5, 5,
         4, 6, 8, 7, 7, 5, 4, 6, 5, 4, 6, 4, 5, 4, 8, 8, 5, 4, 5, 5, 6, 4, 7, 7, 6, 5, 7, 7, 4, 7, 6, 8, 7, 6, 5, 6, 4,
         7, 8, 7, 4, 8, 5, 8, 7, 8, 4, 7, 6, 7, 6, 7, 6, 6, 8, 5, 6, 5, 5, 6, 7, 5, 5, 5, 5, 6, 6, 4, 6, 7, 4, 4, 4, 4,
         6, 8, 6, 6, 6, 7, 4, 4, 4, 5, 5, 8, 4, 7, 7, 6, 4, 4, 7, 8, 4, 5, 4, 5, 5, 5, 7, 4, 6, 5, 4;
             int(1..142)]
letting load_per_period_ub be 36
letting load_per_period_lb be 5
letting courses_per_period_ub be 9
letting courses_per_period_lb be 3
letting fin1 be 466
letting fin2 be 142
letting fin3 be 8
